(set-option :produce-models true)
 (set-logic ALL)
(declare-fun *status () String)
(declare-fun *@ss619 () String )
(declare-fun *@ss6190 () String )
(declare-fun *@sstring619 () String )
(assert (not (not (= (str.len *@ss6190) 3))  ) )
(assert (< (str.to_int *@ss6190) 100)  )
(assert (= *status (str.++  *@ss6190 *@sstring619 )))
(check-sat)
 (get-model)
